Maximize
  8 x_night_lamps + 5 x_desk_lamps
Subject To
  c1: x_desk_lamps >= 30
  c2: x_night_lamps >= 50
  c3: x_desk_lamps <= 150
  c4: x_night_lamps <= 180
  c5: x_desk_lamps + x_night_lamps >= 100
End